(set-info :Origin "This instance was generated by: BanditFuzz-- an RL fuzzer for SMT solvers" )
(set-info :Author "Joe Scott, Fed Mora, Vijay Ganesh" )
(set-info :Contact "Joe Scott, joseph.scott@uwaterloo.ca")
; solvers/z3.sh
; 	time => 0.25592517852783203
; 	answer => err
; solvers/bitwuzla.sh
; 	time => 0.15235567092895508
; 	answer => err
; solvers/cvc4.sh
; 	time => 0.23377394676208496
; 	answer => err
(set-logic QF_BV)
(declare-const bool_0 Bool)
(declare-const bool_1 Bool)
(declare-const bool_2 Bool)
(declare-const bool_3 Bool)
(declare-const bool_4 Bool)
(declare-const bv_0 (_ BitVec 8))
(declare-const bv_1 (_ BitVec 8))
(declare-const bv_2 (_ BitVec 8))
(declare-const bv_3 (_ BitVec 8))
(declare-const bv_4 (_ BitVec 8))
(assert (bvsle (bvashr (bvnand bv_0 bv_1) (bvxor #x000000df  bv_4)) (bvnand (bvsdiv #x0000006a  bv_3) (bvadd bv_0 bv_2))))
(assert (bvugt (bvand (bvsrem bv_0 #x0000000b ) (bvlshr bv_4 bv_3)) (bvnor (bvxor #x00000087  #x00000074 ) (bvadd #x00000019  bv_3))))
(assert (=> (bvsgt (bvand bv_4 bv_3) (bvxnor #x000000ed  #x000000a1 )) (bvsle (bvashr bv_3 #x0000004f ) (bvxor #x0000006e  #x0000007f ))))
(assert (and (bvsge (bvxor #x00000039  #x000000e1 ) (bvsmod bv_4 #x000000a2 )) (bvsge (bvsmod bv_0 #x00000007 ) (bvsmod #x00000030  bv_3))))
(assert (not (bvugt (bvlshr #x000000d9  bv_1) (bvadd #x00000023  #x00000082 ))))
(check-sat)
(exit)
